c This is it
p cnf 142 677
3 4 5 6 0
-3 -4 0
-3 -5 0
-3 -6 0
-4 -5 0
-4 -6 0
-5 -6 0
1 2 0
-1 -2 0
-7 0
8 0
-9 0
-10 0
-11 0
-12 0
-13 0
-14 0
-15 0
-16 0
-17 0
-18 0
-19 0
-91 0
-92 0
-93 0
-94 0
-95 0
-96 0
-97 0
98 0
-99 0
-100 0
-101 0
-102 0
-103 0
-117 0
-118 0
119 0
-120 0
-121 0
-122 0
-123 0
-124 0
-125 0
-126 0
-127 0
-128 0
-129 0
-117 130 0
-7 -22 0
-7 -23 0
-7 -24 0
-7 -25 0
-7 -26 0
-7 -27 0
-7 -28 0
-7 -29 0
-7 -30 0
-7 -31 0
-7 -32 0
-7 -20 2 0
-7 -3 0
-7 -4 0
-7 -5 0
-7 -93 106 0
-7 -94 107 0
-7 -95 108 0
-7 -96 109 0
-7 -97 110 0
-7 -98 111 0
-7 -99 112 0
-7 -100 113 0
-7 -101 114 0
-7 -102 115 0
-7 -103 116 0
-91 2 104 0
-7 20 1 0
-7 -1 -6 21 0
-7 -1 -6 -105 0
-7 -2 -6 92 0
-7 -2 -6 -105 0
-91 -2 -6 105 0
-91 -1 -6 -105 0
-91 -1 -6 -131 0
-118 131 0
-8 -22 0
-8 -24 0
-8 -25 0
-8 -26 0
-8 -27 0
-8 -28 0
-8 -29 0
-8 -30 0
-8 -31 0
-8 -32 0
-8 -21 2 0
-8 -3 0
-8 -4 0
-8 -93 106 0
-8 -95 108 0
-8 -96 109 0
-8 -97 110 0
-8 -98 111 0
-8 -99 112 0
-8 -100 113 0
-8 -101 114 0
-8 -102 115 0
-8 -103 116 0
-92 2 105 0
-8 21 1 0
-8 -1 -5 20 0
-8 -1 -5 -104 0
-8 -1 -5 -23 0
-8 -2 -5 91 0
-8 -2 -5 -104 0
-92 -2 -5 104 0
-92 -1 -5 -104 0
-92 -1 -5 -130 0
-8 -5 -94 107 0
-8 -1 -6 23 0
-8 -1 -6 -107 0
-8 -1 -6 -20 0
-8 -2 -6 94 0
-8 -2 -6 -107 0
-92 -2 -6 107 0
-92 -1 -6 -107 0
-92 -1 -6 -133 0
-8 -6 -91 104 0
-119 132 0
-9 -20 0
-9 -21 0
-9 -23 0
-9 -25 0
-9 -26 0
-9 -27 0
-9 -28 0
-9 -29 0
-9 -30 0
-9 -31 0
-9 -32 0
-9 -22 2 0
-9 -3 0
-9 -4 0
-9 -5 0
-9 -91 104 0
-9 -92 105 0
-9 -94 107 0
-9 -96 109 0
-9 -97 110 0
-9 -98 111 0
-9 -99 112 0
-9 -100 113 0
-9 -101 114 0
-9 -102 115 0
-9 -103 116 0
-93 2 106 0
-9 22 1 0
-9 -1 -6 24 0
-9 -1 -6 -108 0
-9 -2 -6 95 0
-9 -2 -6 -108 0
-93 -2 -6 108 0
-93 -1 -6 -108 0
-93 -1 -6 -134 0
-120 133 0
-10 -20 0
-10 -22 0
-10 -24 0
-10 -26 0
-10 -27 0
-10 -28 0
-10 -29 0
-10 -30 0
-10 -31 0
-10 -32 0
-10 -23 2 0
-10 -3 0
-10 -4 0
-10 -91 104 0
-10 -93 106 0
-10 -95 108 0
-10 -97 110 0
-10 -98 111 0
-10 -99 112 0
-10 -100 113 0
-10 -101 114 0
-10 -102 115 0
-10 -103 116 0
-94 2 107 0
-10 23 1 0
-10 -1 -5 21 0
-10 -1 -5 -105 0
-10 -1 -5 -25 0
-10 -2 -5 92 0
-10 -2 -5 -105 0
-94 -2 -5 105 0
-94 -1 -5 -105 0
-94 -1 -5 -131 0
-10 -5 -96 109 0
-10 -1 -6 25 0
-10 -1 -6 -109 0
-10 -1 -6 -21 0
-10 -2 -6 96 0
-10 -2 -6 -109 0
-94 -2 -6 109 0
-94 -1 -6 -109 0
-94 -1 -6 -135 0
-10 -6 -92 105 0
-121 134 0
-11 -20 0
-11 -21 0
-11 -23 0
-11 -25 0
-11 -26 0
-11 -27 0
-11 -29 0
-11 -30 0
-11 -31 0
-11 -32 0
-11 -24 2 0
-11 -3 0
-11 -4 0
-11 -91 104 0
-11 -92 105 0
-11 -94 107 0
-11 -96 109 0
-11 -97 110 0
-11 -98 111 0
-11 -100 113 0
-11 -101 114 0
-11 -102 115 0
-11 -103 116 0
-95 2 108 0
-11 24 1 0
-11 -1 -5 22 0
-11 -1 -5 -106 0
-11 -1 -5 -28 0
-11 -2 -5 93 0
-11 -2 -5 -106 0
-95 -2 -5 106 0
-95 -1 -5 -106 0
-95 -1 -5 -132 0
-11 -5 -99 112 0
-11 -1 -6 28 0
-11 -1 -6 -112 0
-11 -1 -6 -22 0
-11 -2 -6 99 0
-11 -2 -6 -112 0
-95 -2 -6 112 0
-95 -1 -6 -112 0
-95 -1 -6 -138 0
-11 -6 -93 106 0
-122 135 0
-12 -20 0
-12 -21 0
-12 -22 0
-12 -24 0
-12 -27 0
-12 -28 0
-12 -30 0
-12 -31 0
-12 -32 0
-12 -25 2 0
-12 -3 0
-12 -91 104 0
-12 -92 105 0
-12 -93 106 0
-12 -95 108 0
-12 -98 111 0
-12 -99 112 0
-12 -101 114 0
-12 -102 115 0
-12 -103 116 0
-96 2 109 0
-12 25 1 0
-12 -1 -4 26 0
-12 -1 -4 -110 0
-12 -1 -4 -23 0
-12 -1 -4 -29 0
-12 -2 -4 97 0
-12 -2 -4 -110 0
-96 -2 -4 110 0
-96 -1 -4 -110 0
-96 -1 -4 -136 0
-12 -4 -94 107 0
-12 -4 -100 113 0
-12 -1 -5 23 0
-12 -1 -5 -107 0
-12 -1 -5 -26 0
-12 -1 -5 -29 0
-12 -2 -5 94 0
-12 -2 -5 -107 0
-96 -2 -5 107 0
-96 -1 -5 -107 0
-96 -1 -5 -133 0
-12 -5 -97 110 0
-12 -5 -100 113 0
-12 -1 -6 29 0
-12 -1 -6 -113 0
-12 -1 -6 -26 0
-12 -1 -6 -23 0
-12 -2 -6 100 0
-12 -2 -6 -113 0
-96 -2 -6 113 0
-96 -1 -6 -113 0
-96 -1 -6 -139 0
-12 -6 -97 110 0
-12 -6 -94 107 0
-123 136 0
-13 -20 0
-13 -21 0
-13 -22 0
-13 -23 0
-13 -24 0
-13 -28 0
-13 -29 0
-13 -31 0
-13 -32 0
-13 -26 2 0
-13 -5 0
-13 -91 104 0
-13 -92 105 0
-13 -93 106 0
-13 -94 107 0
-13 -95 108 0
-13 -99 112 0
-13 -100 113 0
-13 -102 115 0
-13 -103 116 0
-97 2 110 0
-13 26 1 0
-13 -1 -3 25 0
-13 -1 -3 -109 0
-13 -1 -3 -27 0
-13 -1 -3 -30 0
-13 -2 -3 96 0
-13 -2 -3 -109 0
-97 -2 -3 109 0
-97 -1 -3 -109 0
-97 -1 -3 -135 0
-13 -3 -98 111 0
-13 -3 -101 114 0
-13 -1 -4 27 0
-13 -1 -4 -111 0
-13 -1 -4 -25 0
-13 -1 -4 -30 0
-13 -2 -4 98 0
-13 -2 -4 -111 0
-97 -2 -4 111 0
-97 -1 -4 -111 0
-97 -1 -4 -137 0
-13 -4 -96 109 0
-13 -4 -101 114 0
-13 -1 -6 30 0
-13 -1 -6 -114 0
-13 -1 -6 -25 0
-13 -1 -6 -27 0
-13 -2 -6 101 0
-13 -2 -6 -114 0
-97 -2 -6 114 0
-97 -1 -6 -114 0
-97 -1 -6 -140 0
-13 -6 -96 109 0
-13 -6 -98 111 0
-124 137 0
-14 -20 0
-14 -21 0
-14 -22 0
-14 -23 0
-14 -24 0
-14 -25 0
-14 -29 0
-14 -30 0
-14 -32 0
-14 -27 2 0
-14 -5 0
-14 -91 104 0
-14 -92 105 0
-14 -93 106 0
-14 -94 107 0
-14 -95 108 0
-14 -96 109 0
-14 -100 113 0
-14 -101 114 0
-14 -103 116 0
-98 2 111 0
-14 27 1 0
-14 -1 -3 26 0
-14 -1 -3 -110 0
-14 -1 -3 -28 0
-14 -1 -3 -31 0
-14 -2 -3 97 0
-14 -2 -3 -110 0
-98 -2 -3 110 0
-98 -1 -3 -110 0
-98 -1 -3 -136 0
-14 -3 -99 112 0
-14 -3 -102 115 0
-14 -1 -4 28 0
-14 -1 -4 -112 0
-14 -1 -4 -26 0
-14 -1 -4 -31 0
-14 -2 -4 99 0
-14 -2 -4 -112 0
-98 -2 -4 112 0
-98 -1 -4 -112 0
-98 -1 -4 -138 0
-14 -4 -97 110 0
-14 -4 -102 115 0
-14 -1 -6 31 0
-14 -1 -6 -115 0
-14 -1 -6 -26 0
-14 -1 -6 -28 0
-14 -2 -6 102 0
-14 -2 -6 -115 0
-98 -2 -6 115 0
-98 -1 -6 -115 0
-98 -1 -6 -141 0
-14 -6 -97 110 0
-14 -6 -99 112 0
-125 138 0
-15 -20 0
-15 -21 0
-15 -22 0
-15 -23 0
-15 -25 0
-15 -26 0
-15 -29 0
-15 -30 0
-15 -31 0
-15 -28 2 0
-15 -4 0
-15 -91 104 0
-15 -92 105 0
-15 -93 106 0
-15 -94 107 0
-15 -96 109 0
-15 -97 110 0
-15 -100 113 0
-15 -101 114 0
-15 -102 115 0
-99 2 112 0
-15 28 1 0
-15 -1 -3 27 0
-15 -1 -3 -111 0
-15 -1 -3 -24 0
-15 -1 -3 -32 0
-15 -2 -3 98 0
-15 -2 -3 -111 0
-99 -2 -3 111 0
-99 -1 -3 -111 0
-99 -1 -3 -137 0
-15 -3 -95 108 0
-15 -3 -103 116 0
-15 -1 -5 24 0
-15 -1 -5 -108 0
-15 -1 -5 -27 0
-15 -1 -5 -32 0
-15 -2 -5 95 0
-15 -2 -5 -108 0
-99 -2 -5 108 0
-99 -1 -5 -108 0
-99 -1 -5 -134 0
-15 -5 -98 111 0
-15 -5 -103 116 0
-15 -1 -6 32 0
-15 -1 -6 -116 0
-15 -1 -6 -27 0
-15 -1 -6 -24 0
-15 -2 -6 103 0
-15 -2 -6 -116 0
-99 -2 -6 116 0
-99 -1 -6 -116 0
-99 -1 -6 -142 0
-15 -6 -98 111 0
-15 -6 -95 108 0
-126 139 0
-16 -20 0
-16 -21 0
-16 -22 0
-16 -23 0
-16 -24 0
-16 -26 0
-16 -27 0
-16 -28 0
-16 -31 0
-16 -32 0
-16 -29 2 0
-16 -3 0
-16 -6 0
-16 -91 104 0
-16 -92 105 0
-16 -93 106 0
-16 -94 107 0
-16 -95 108 0
-16 -97 110 0
-16 -98 111 0
-16 -99 112 0
-16 -102 115 0
-16 -103 116 0
-100 2 113 0
-16 29 1 0
-16 -1 -4 30 0
-16 -1 -4 -114 0
-16 -1 -4 -25 0
-16 -2 -4 101 0
-16 -2 -4 -114 0
-100 -2 -4 114 0
-100 -1 -4 -114 0
-100 -1 -4 -140 0
-16 -4 -96 109 0
-16 -1 -5 25 0
-16 -1 -5 -109 0
-16 -1 -5 -30 0
-16 -2 -5 96 0
-16 -2 -5 -109 0
-100 -2 -5 109 0
-100 -1 -5 -109 0
-100 -1 -5 -135 0
-16 -5 -101 114 0
-127 140 0
-17 -20 0
-17 -21 0
-17 -22 0
-17 -23 0
-17 -24 0
-17 -25 0
-17 -27 0
-17 -28 0
-17 -32 0
-17 -30 2 0
-17 -6 0
-17 -91 104 0
-17 -92 105 0
-17 -93 106 0
-17 -94 107 0
-17 -95 108 0
-17 -96 109 0
-17 -98 111 0
-17 -99 112 0
-17 -103 116 0
-101 2 114 0
-17 30 1 0
-17 -1 -3 29 0
-17 -1 -3 -113 0
-17 -1 -3 -31 0
-17 -1 -3 -26 0
-17 -2 -3 100 0
-17 -2 -3 -113 0
-101 -2 -3 113 0
-101 -1 -3 -113 0
-101 -1 -3 -139 0
-17 -3 -102 115 0
-17 -3 -97 110 0
-17 -1 -4 31 0
-17 -1 -4 -115 0
-17 -1 -4 -29 0
-17 -1 -4 -26 0
-17 -2 -4 102 0
-17 -2 -4 -115 0
-101 -2 -4 115 0
-101 -1 -4 -115 0
-101 -1 -4 -141 0
-17 -4 -100 113 0
-17 -4 -97 110 0
-17 -1 -5 26 0
-17 -1 -5 -110 0
-17 -1 -5 -29 0
-17 -1 -5 -31 0
-17 -2 -5 97 0
-17 -2 -5 -110 0
-101 -2 -5 110 0
-101 -1 -5 -110 0
-101 -1 -5 -136 0
-17 -5 -100 113 0
-17 -5 -102 115 0
-128 141 0
-18 -20 0
-18 -21 0
-18 -22 0
-18 -23 0
-18 -24 0
-18 -25 0
-18 -26 0
-18 -28 0
-18 -29 0
-18 -31 2 0
-18 -6 0
-18 -91 104 0
-18 -92 105 0
-18 -93 106 0
-18 -94 107 0
-18 -95 108 0
-18 -96 109 0
-18 -97 110 0
-18 -99 112 0
-18 -100 113 0
-102 2 115 0
-18 31 1 0
-18 -1 -3 30 0
-18 -1 -3 -114 0
-18 -1 -3 -32 0
-18 -1 -3 -27 0
-18 -2 -3 101 0
-18 -2 -3 -114 0
-102 -2 -3 114 0
-102 -1 -3 -114 0
-102 -1 -3 -140 0
-18 -3 -103 116 0
-18 -3 -98 111 0
-18 -1 -4 32 0
-18 -1 -4 -116 0
-18 -1 -4 -30 0
-18 -1 -4 -27 0
-18 -2 -4 103 0
-18 -2 -4 -116 0
-102 -2 -4 116 0
-102 -1 -4 -116 0
-102 -1 -4 -142 0
-18 -4 -101 114 0
-18 -4 -98 111 0
-18 -1 -5 27 0
-18 -1 -5 -111 0
-18 -1 -5 -30 0
-18 -1 -5 -32 0
-18 -2 -5 98 0
-18 -2 -5 -111 0
-102 -2 -5 111 0
-102 -1 -5 -111 0
-102 -1 -5 -137 0
-18 -5 -101 114 0
-18 -5 -103 116 0
-129 142 0
-19 -20 0
-19 -21 0
-19 -22 0
-19 -23 0
-19 -24 0
-19 -25 0
-19 -26 0
-19 -27 0
-19 -29 0
-19 -30 0
-19 -32 2 0
-19 -4 0
-19 -6 0
-19 -91 104 0
-19 -92 105 0
-19 -93 106 0
-19 -94 107 0
-19 -95 108 0
-19 -96 109 0
-19 -97 110 0
-19 -98 111 0
-19 -100 113 0
-19 -101 114 0
-103 2 116 0
-19 32 1 0
-19 -1 -3 31 0
-19 -1 -3 -115 0
-19 -1 -3 -28 0
-19 -2 -3 102 0
-19 -2 -3 -115 0
-103 -2 -3 115 0
-103 -1 -3 -115 0
-103 -1 -3 -141 0
-19 -3 -99 112 0
-19 -1 -5 28 0
-19 -1 -5 -112 0
-19 -1 -5 -31 0
-19 -2 -5 99 0
-19 -2 -5 -112 0
-103 -2 -5 112 0
-103 -1 -5 -112 0
-103 -1 -5 -138 0
-19 -5 -102 115 0
24 0
